c Modular CNF with 2 modules
c Generated CNF instance
p cnf 20 320
7 2 4 0
7 2 -4 0
7 -2 4 0
-7 2 4 0
4 6 1 0
4 6 -1 0
4 -6 1 0
-4 6 1 0
3 6 2 0
3 6 -2 0
3 -6 2 0
-3 6 2 0
9 4 1 0
9 4 -1 0
9 -4 1 0
-9 4 1 0
3 1 10 0
3 1 -10 0
3 -1 10 0
-3 1 10 0
3 2 6 0
3 2 -6 0
3 -2 6 0
-3 2 6 0
7 5 1 0
7 5 -1 0
7 -5 1 0
-7 5 1 0
2 7 10 0
2 7 -10 0
2 -7 10 0
-2 7 10 0
8 1 5 0
8 1 -5 0
8 -1 5 0
-8 1 5 0
9 1 4 0
9 1 -4 0
9 -1 4 0
-9 1 4 0
1 7 5 0
1 7 -5 0
1 -7 5 0
-1 7 5 0
8 1 3 0
8 1 -3 0
8 -1 3 0
-8 1 3 0
8 7 10 0
8 7 -10 0
8 -7 10 0
-8 7 10 0
7 8 3 0
7 8 -3 0
7 -8 3 0
-7 8 3 0
4 8 3 0
4 8 -3 0
4 -8 3 0
-4 8 3 0
3 8 10 0
3 8 -10 0
3 -8 10 0
-3 8 10 0
3 1 8 0
3 1 -8 0
3 -1 8 0
-3 1 8 0
3 9 6 0
3 9 -6 0
3 -9 6 0
-3 9 6 0
9 1 6 0
9 1 -6 0
9 -1 6 0
-9 1 6 0
3 5 8 0
3 5 -8 0
3 -5 8 0
-3 5 8 0
7 8 10 0
7 8 -10 0
7 -8 10 0
-7 8 10 0
4 8 7 0
4 8 -7 0
4 -8 7 0
-4 8 7 0
10 2 8 0
10 2 -8 0
10 -2 8 0
-10 2 8 0
8 7 4 0
8 7 -4 0
8 -7 4 0
-8 7 4 0
5 4 3 0
5 4 -3 0
5 -4 3 0
-5 4 3 0
7 6 8 0
7 6 -8 0
7 -6 8 0
-7 6 8 0
9 1 2 0
9 1 -2 0
9 -1 2 0
-9 1 2 0
4 5 2 0
4 5 -2 0
4 -5 2 0
-4 5 2 0
2 10 7 0
2 10 -7 0
2 -10 7 0
-2 10 7 0
9 8 6 0
9 8 -6 0
9 -8 6 0
-9 8 6 0
8 3 6 0
8 3 -6 0
8 -3 6 0
-8 3 6 0
1 2 6 0
1 2 -6 0
1 -2 6 0
-1 2 6 0
10 4 5 0
10 4 -5 0
10 -4 5 0
-10 4 5 0
9 1 4 0
9 1 -4 0
9 -1 4 0
-9 1 4 0
6 9 8 0
6 9 -8 0
6 -9 8 0
-6 9 8 0
10 1 9 0
10 1 -9 0
10 -1 9 0
-10 1 9 0
7 4 6 0
7 4 -6 0
7 -4 6 0
-7 4 6 0
7 1 9 0
7 1 -9 0
7 -1 9 0
-7 1 9 0
1 4 3 0
1 4 -3 0
1 -4 3 0
-1 4 3 0
9 2 5 0
9 2 -5 0
9 -2 5 0
-9 2 5 0
19 16 17 0
19 16 -17 0
19 -16 17 0
-19 16 17 0
14 15 17 0
14 15 -17 0
14 -15 17 0
-14 15 17 0
15 14 16 0
15 14 -16 0
15 -14 16 0
-15 14 16 0
19 13 15 0
19 13 -15 0
19 -13 15 0
-19 13 15 0
19 14 11 0
19 14 -11 0
19 -14 11 0
-19 14 11 0
11 16 14 0
11 16 -14 0
11 -16 14 0
-11 16 14 0
12 16 18 0
12 16 -18 0
12 -16 18 0
-12 16 18 0
12 13 19 0
12 13 -19 0
12 -13 19 0
-12 13 19 0
14 11 15 0
14 11 -15 0
14 -11 15 0
-14 11 15 0
18 19 12 0
18 19 -12 0
18 -19 12 0
-18 19 12 0
18 14 15 0
18 14 -15 0
18 -14 15 0
-18 14 15 0
19 14 17 0
19 14 -17 0
19 -14 17 0
-19 14 17 0
12 19 16 0
12 19 -16 0
12 -19 16 0
-12 19 16 0
15 19 11 0
15 19 -11 0
15 -19 11 0
-15 19 11 0
20 16 18 0
20 16 -18 0
20 -16 18 0
-20 16 18 0
14 20 19 0
14 20 -19 0
14 -20 19 0
-14 20 19 0
18 17 20 0
18 17 -20 0
18 -17 20 0
-18 17 20 0
11 17 12 0
11 17 -12 0
11 -17 12 0
-11 17 12 0
12 16 19 0
12 16 -19 0
12 -16 19 0
-12 16 19 0
11 19 13 0
11 19 -13 0
11 -19 13 0
-11 19 13 0
12 17 15 0
12 17 -15 0
12 -17 15 0
-12 17 15 0
12 13 17 0
12 13 -17 0
12 -13 17 0
-12 13 17 0
18 19 13 0
18 19 -13 0
18 -19 13 0
-18 19 13 0
18 17 13 0
18 17 -13 0
18 -17 13 0
-18 17 13 0
15 13 16 0
15 13 -16 0
15 -13 16 0
-15 13 16 0
15 14 16 0
15 14 -16 0
15 -14 16 0
-15 14 16 0
11 18 14 0
11 18 -14 0
11 -18 14 0
-11 18 14 0
14 20 19 0
14 20 -19 0
14 -20 19 0
-14 20 19 0
15 17 13 0
15 17 -13 0
15 -17 13 0
-15 17 13 0
17 15 20 0
17 15 -20 0
17 -15 20 0
-17 15 20 0
15 11 16 0
15 11 -16 0
15 -11 16 0
-15 11 16 0
14 11 19 0
14 11 -19 0
14 -11 19 0
-14 11 19 0
18 15 12 0
18 15 -12 0
18 -15 12 0
-18 15 12 0
13 12 18 0
13 12 -18 0
13 -12 18 0
-13 12 18 0
17 19 16 0
17 19 -16 0
17 -19 16 0
-17 19 16 0
18 14 20 0
18 14 -20 0
18 -14 20 0
-18 14 20 0
11 20 19 0
11 20 -19 0
11 -20 19 0
-11 20 19 0
13 11 17 0
13 11 -17 0
13 -11 17 0
-13 11 17 0
17 16 13 0
17 16 -13 0
17 -16 13 0
-17 16 13 0
11 14 19 0
11 14 -19 0
11 -14 19 0
-11 14 19 0
